(declare-fun e () String)
(declare-fun g () String)
(declare-fun b () String)
(declare-fun f () String)
(declare-fun a () String)
(declare-fun h () String)
(assert (= (str.++ e "ff") (str.++ b h "a" b)))
(assert (= (str.++ "fcgcf" h) (str.++ "f" a)))
(assert (= (str.++ f "g" a "de") (str.++ g "ddcha")))

(check-sat)
